(set-option :smt.auto-config false)
(set-option :smt.mbqi false)
(set-option :sat.random_seed 488)
(set-option :smt.random_seed 599)
(set-option :nlsat.seed 611)
(set-option :memory_max_size 6000)
(declare-fun P (Int) Bool)
(declare-sort RegExStr 0)
(declare-sort RMode 0)
(declare-fun Q (Int Int Int) Bool)
(declare-fun R (Int Int) Bool)
(assert (! (forall ((a0py0 Int)) (! (or (not (P a0py0)) (forall ((b0py0 Int)(c0py0 Int)) (! (Q b0py0 c0py0 a0py0) :pattern ((Q b0py0 c0py0 a0py0)) ))) :pattern ((P a0py0)) )) :named A0))
(assert (! (forall ((d0py0 Int)) (! (or (not (P d0py0)) (forall ((e0py0 Int)(f0py0 Int)) (! (R e0py0 d0py0) :pattern ((Q e0py0 f0py0 d0py0)) ))) :pattern ((P d0py0)) )) :named A1))
(assert (! (forall ((z1py0 Int)) (! (P z1py0) :pattern ((P z1py0)) )) :named A2))
(assert (! (forall ((y2py0 Int)(z2py0 Int)) (! (not (R y2py0 z2py0)) :pattern ((R y2py0 z2py0)) )) :named A3))
(check-sat)
(get-info :reason-unknown)
